\ This file has been generated by Portfolio Optimizer
\ ENCODING=ISO-8859-1
\Problem name: Portfolio Optimization
Minimize
 obj: [ 85 portfolio_weight_0^2 + 71 portfolio_weight_1^2 + 79 portfolio_weight_2^2 + 89 portfolio_weight_3^2 + 72 portfolio_weight_4^2 + 86 portfolio_weight_5^2 + 58 portfolio_weight_6^2 + 75 portfolio_weight_7^2 + 66 portfolio_weight_8^2 + 85 portfolio_weight_9^2 + 60 portfolio_weight_10^2 + 89 portfolio_weight_11^2 + 77 portfolio_weight_12^2 + 82 portfolio_weight_13^2 + 84 portfolio_weight_14^2 + 62 portfolio_weight_15^2 + 78 portfolio_weight_16^2 + 55 portfolio_weight_17^2 + 68 portfolio_weight_18^2 + 82 portfolio_weight_19^2 + 66 portfolio_weight_20^2 + 90 portfolio_weight_21^2 + 64 portfolio_weight_22^2 + 86 portfolio_weight_23^2 + 93 portfolio_weight_24^2 + 86 portfolio_weight_25^2 + 70 portfolio_weight_26^2 + 89 portfolio_weight_27^2 + 93 portfolio_weight_28^2 + 70 portfolio_weight_29^2 + 54 portfolio_weight_30^2 + 59 portfolio_weight_31^2 + 93 portfolio_weight_32^2 + 83 portfolio_weight_33^2 + 85 portfolio_weight_34^2 + 85 portfolio_weight_35^2 + 59 portfolio_weight_36^2 + 68 portfolio_weight_37^2 + 85 portfolio_weight_38^2 + 57 portfolio_weight_39^2 + 98 portfolio_weight_40^2 + 61 portfolio_weight_41^2 + 62 portfolio_weight_42^2 + 69 portfolio_weight_43^2 + 77 portfolio_weight_44^2 + 52 portfolio_weight_45^2 + 96 portfolio_weight_46^2 + 75 portfolio_weight_47^2 + 81 portfolio_weight_48^2 + 94 portfolio_weight_49^2 + 57 portfolio_weight_50^2 + 65 portfolio_weight_51^2 + 58 portfolio_weight_52^2 + 92 portfolio_weight_53^2 + 51 portfolio_weight_54^2 + 85 portfolio_weight_55^2 + 88 portfolio_weight_56^2 + 56 portfolio_weight_57^2 + 51 portfolio_weight_58^2 + 72 portfolio_weight_59^2 + 94 portfolio_weight_60^2 + 69 portfolio_weight_61^2 + 61 portfolio_weight_62^2 + 61 portfolio_weight_63^2 + 92 portfolio_weight_64^2 + 51 portfolio_weight_65^2 + 93 portfolio_weight_66^2 + 68 portfolio_weight_67^2 + 67 portfolio_weight_68^2 + 83 portfolio_weight_69^2 + 87 portfolio_weight_70^2 + 58 portfolio_weight_71^2 + 62 portfolio_weight_72^2 + 73 portfolio_weight_73^2 + 75 portfolio_weight_74^2 + 87 portfolio_weight_75^2 + 69 portfolio_weight_76^2 + 57 portfolio_weight_77^2 + 89 portfolio_weight_78^2 + 55 portfolio_weight_79^2 + 85 portfolio_weight_80^2 + 79 portfolio_weight_81^2 + 62 portfolio_weight_82^2 + 74 portfolio_weight_83^2 + 94 portfolio_weight_84^2 + 76 portfolio_weight_85^2 + 66 portfolio_weight_86^2 + 64 portfolio_weight_87^2 + 89 portfolio_weight_88^2 + 55 portfolio_weight_89^2 + 88 portfolio_weight_90^2 + 93 portfolio_weight_91^2 + 95 portfolio_weight_92^2 + 73 portfolio_weight_93^2 + 64 portfolio_weight_94^2 + 91 portfolio_weight_95^2 + 57 portfolio_weight_96^2 + 76 portfolio_weight_97^2 + 89 portfolio_weight_98^2 + 98 portfolio_weight_99^2 + 56 portfolio_weight_100^2 + 96 portfolio_weight_101^2 + 88 portfolio_weight_102^2 + 73 portfolio_weight_103^2 + 78 portfolio_weight_104^2 + 99 portfolio_weight_105^2 + 67 portfolio_weight_106^2 + 71 portfolio_weight_107^2 + 86 portfolio_weight_108^2 ]/2
Subject To
 budget: portfolio_weight_0 + portfolio_weight_1 + portfolio_weight_2 + portfolio_weight_3 + portfolio_weight_4 + portfolio_weight_5 + portfolio_weight_6 + portfolio_weight_7 + portfolio_weight_8 + portfolio_weight_9 + portfolio_weight_10 + portfolio_weight_11 + portfolio_weight_12 + portfolio_weight_13 + portfolio_weight_14 + portfolio_weight_15 + portfolio_weight_16 + portfolio_weight_17 + portfolio_weight_18 + portfolio_weight_19 + portfolio_weight_20 + portfolio_weight_21 + portfolio_weight_22 + portfolio_weight_23 + portfolio_weight_24 + portfolio_weight_25 + portfolio_weight_26 + portfolio_weight_27 + portfolio_weight_28 + portfolio_weight_29 + portfolio_weight_30 + portfolio_weight_31 + portfolio_weight_32 + portfolio_weight_33 + portfolio_weight_34 + portfolio_weight_35 + portfolio_weight_36 + portfolio_weight_37 + portfolio_weight_38 + portfolio_weight_39 + portfolio_weight_40 + portfolio_weight_41 + portfolio_weight_42 + portfolio_weight_43 + portfolio_weight_44 + portfolio_weight_45 + portfolio_weight_46 + portfolio_weight_47 + portfolio_weight_48 + portfolio_weight_49 + portfolio_weight_50 + portfolio_weight_51 + portfolio_weight_52 + portfolio_weight_53 + portfolio_weight_54 + portfolio_weight_55 + portfolio_weight_56 + portfolio_weight_57 + portfolio_weight_58 + portfolio_weight_59 + portfolio_weight_60 + portfolio_weight_61 + portfolio_weight_62 + portfolio_weight_63 + portfolio_weight_64 + portfolio_weight_65 + portfolio_weight_66 + portfolio_weight_67 + portfolio_weight_68 + portfolio_weight_69 + portfolio_weight_70 + portfolio_weight_71 + portfolio_weight_72 + portfolio_weight_73 + portfolio_weight_74 + portfolio_weight_75 + portfolio_weight_76 + portfolio_weight_77 + portfolio_weight_78 + portfolio_weight_79 + portfolio_weight_80 + portfolio_weight_81 + portfolio_weight_82 + portfolio_weight_83 + portfolio_weight_84 + portfolio_weight_85 + portfolio_weight_86 + portfolio_weight_87 + portfolio_weight_88 + portfolio_weight_89 + portfolio_weight_90 + portfolio_weight_91 + portfolio_weight_92 + portfolio_weight_93 + portfolio_weight_94 + portfolio_weight_95 + portfolio_weight_96 + portfolio_weight_97 + portfolio_weight_98 + portfolio_weight_99 + portfolio_weight_100 + portfolio_weight_101 + portfolio_weight_102 + portfolio_weight_103 + portfolio_weight_104 + portfolio_weight_105 + portfolio_weight_106 + portfolio_weight_107 + portfolio_weight_108 = 1
 max_dev_0: portfolio_weight_0 <= 0.0657226927372511
 min_dev_0: portfolio_weight_0 >= 0
 max_dev_1: portfolio_weight_1 <= 0.075965367107452
 min_dev_1: portfolio_weight_1 >= 0
 max_dev_2: portfolio_weight_2 <= 0.0571200222174161
 min_dev_2: portfolio_weight_2 >= 0
 max_dev_3: portfolio_weight_3 <= 0.0546924205715264
 min_dev_3: portfolio_weight_3 >= 0
 max_dev_4: portfolio_weight_4 <= 0.0634426927916698
 min_dev_4: portfolio_weight_4 >= 0
 max_dev_5: portfolio_weight_5 <= 0.0523531661453928
 min_dev_5: portfolio_weight_5 >= 0
 max_dev_6: portfolio_weight_6 <= 0.0521765602134258
 min_dev_6: portfolio_weight_6 >= 0
 max_dev_7: portfolio_weight_7 <= 0.0518221902688416
 min_dev_7: portfolio_weight_7 >= 0
 max_dev_8: portfolio_weight_8 <= 0.0671845997278553
 min_dev_8: portfolio_weight_8 >= 0
 max_dev_9: portfolio_weight_9 <= 0.0525106669114879
 min_dev_9: portfolio_weight_9 >= 0
 max_dev_10: portfolio_weight_10 <= 0.0657325592992667
 min_dev_10: portfolio_weight_10 >= 0
 max_dev_11: portfolio_weight_11 <= 0.0567098680141479
 min_dev_11: portfolio_weight_11 >= 0
 max_dev_12: portfolio_weight_12 <= 0.0674069342450151
 min_dev_12: portfolio_weight_12 >= 0
 max_dev_13: portfolio_weight_13 <= 0.0519150559056384
 min_dev_13: portfolio_weight_13 >= 0
 max_dev_14: portfolio_weight_14 <= 0.0530944597663063
 min_dev_14: portfolio_weight_14 >= 0
 max_dev_15: portfolio_weight_15 <= 0.0591076804358922
 min_dev_15: portfolio_weight_15 >= 0
 max_dev_16: portfolio_weight_16 <= 0.0537590606174996
 min_dev_16: portfolio_weight_16 >= 0
 max_dev_17: portfolio_weight_17 <= 0.0504779634320683
 min_dev_17: portfolio_weight_17 >= 0
 max_dev_18: portfolio_weight_18 <= 0.0514664867066355
 min_dev_18: portfolio_weight_18 >= 0
 max_dev_19: portfolio_weight_19 <= 0.051900034992476
 min_dev_19: portfolio_weight_19 >= 0
 max_dev_20: portfolio_weight_20 <= 0.052046196833085
 min_dev_20: portfolio_weight_20 >= 0
 max_dev_21: portfolio_weight_21 <= 0.0614376686854902
 min_dev_21: portfolio_weight_21 >= 0
 max_dev_22: portfolio_weight_22 <= 0.0581025407712959
 min_dev_22: portfolio_weight_22 >= 0
 max_dev_23: portfolio_weight_23 <= 0.0568029314201983
 min_dev_23: portfolio_weight_23 >= 0
 max_dev_24: portfolio_weight_24 <= 0.0931118544853631
 min_dev_24: portfolio_weight_24 >= 0
 max_dev_25: portfolio_weight_25 <= 0.0687342509978895
 min_dev_25: portfolio_weight_25 >= 0
 max_dev_26: portfolio_weight_26 <= 0.0628964010918672
 min_dev_26: portfolio_weight_26 >= 0
 max_dev_27: portfolio_weight_27 <= 0.0512967523378681
 min_dev_27: portfolio_weight_27 >= 0
 max_dev_28: portfolio_weight_28 <= 0.0561390434084211
 min_dev_28: portfolio_weight_28 >= 0
 max_dev_29: portfolio_weight_29 <= 0.0577976753672624
 min_dev_29: portfolio_weight_29 >= 0
 max_dev_30: portfolio_weight_30 <= 0.0538186683709586
 min_dev_30: portfolio_weight_30 >= 0
 max_dev_31: portfolio_weight_31 <= 0.0818650174981139
 min_dev_31: portfolio_weight_31 >= 0
 max_dev_32: portfolio_weight_32 <= 0.0560880808925909
 min_dev_32: portfolio_weight_32 >= 0
 max_dev_33: portfolio_weight_33 <= 0.0516934709374232
 min_dev_33: portfolio_weight_33 >= 0
 max_dev_34: portfolio_weight_34 <= 0.0521334739772648
 min_dev_34: portfolio_weight_34 >= 0
 max_dev_35: portfolio_weight_35 <= 0.1066828295657277
 min_dev_35: portfolio_weight_35 >= 0.00668282956572774
 max_dev_36: portfolio_weight_36 <= 0.0538000188218729
 min_dev_36: portfolio_weight_36 >= 0
 max_dev_37: portfolio_weight_37 <= 0.0507236843617544
 min_dev_37: portfolio_weight_37 >= 0
 max_dev_38: portfolio_weight_38 <= 0.053176514468436
 min_dev_38: portfolio_weight_38 >= 0
 max_dev_39: portfolio_weight_39 <= 0.0509310051254835
 min_dev_39: portfolio_weight_39 >= 0
 max_dev_40: portfolio_weight_40 <= 0.0644752427785909
 min_dev_40: portfolio_weight_40 >= 0
 max_dev_41: portfolio_weight_41 <= 0.0508189575057431
 min_dev_41: portfolio_weight_41 >= 0
 max_dev_42: portfolio_weight_42 <= 0.0514232228417038
 min_dev_42: portfolio_weight_42 >= 0
 max_dev_43: portfolio_weight_43 <= 0.0558073105157786
 min_dev_43: portfolio_weight_43 >= 0
 max_dev_44: portfolio_weight_44 <= 0.0675404416134511
 min_dev_44: portfolio_weight_44 >= 0
 max_dev_45: portfolio_weight_45 <= 0.055396199603305
 min_dev_45: portfolio_weight_45 >= 0
 max_dev_46: portfolio_weight_46 <= 0.0516445775772862
 min_dev_46: portfolio_weight_46 >= 0
 max_dev_47: portfolio_weight_47 <= 0.0569427086086869
 min_dev_47: portfolio_weight_47 >= 0
 max_dev_48: portfolio_weight_48 <= 0.0536231055077429
 min_dev_48: portfolio_weight_48 >= 0
 max_dev_49: portfolio_weight_49 <= 0.0679543274659569
 min_dev_49: portfolio_weight_49 >= 0
 max_dev_50: portfolio_weight_50 <= 0.0635979221574545
 min_dev_50: portfolio_weight_50 >= 0
 max_dev_51: portfolio_weight_51 <= 0.0533803171438538
 min_dev_51: portfolio_weight_51 >= 0
 max_dev_52: portfolio_weight_52 <= 0.0626151920702177
 min_dev_52: portfolio_weight_52 >= 0
 max_dev_53: portfolio_weight_53 <= 0.0575863805843652
 min_dev_53: portfolio_weight_53 >= 0
 max_dev_54: portfolio_weight_54 <= 0.0726903214071461
 min_dev_54: portfolio_weight_54 >= 0
 max_dev_55: portfolio_weight_55 <= 0.0620891735460352
 min_dev_55: portfolio_weight_55 >= 0
 max_dev_56: portfolio_weight_56 <= 0.0599953973495447
 min_dev_56: portfolio_weight_56 >= 0
 max_dev_57: portfolio_weight_57 <= 0.071825706575334
 min_dev_57: portfolio_weight_57 >= 0
 max_dev_58: portfolio_weight_58 <= 0.055873987346816
 min_dev_58: portfolio_weight_58 >= 0
 max_dev_59: portfolio_weight_59 <= 0.0526698666869313
 min_dev_59: portfolio_weight_59 >= 0
 max_dev_60: portfolio_weight_60 <= 0.0570707654106567
 min_dev_60: portfolio_weight_60 >= 0
 max_dev_61: portfolio_weight_61 <= 0.0540540431548896
 min_dev_61: portfolio_weight_61 >= 0
 max_dev_62: portfolio_weight_62 <= 0.0605838107539873
 min_dev_62: portfolio_weight_62 >= 0
 max_dev_63: portfolio_weight_63 <= 0.0561538200301001
 min_dev_63: portfolio_weight_63 >= 0
 max_dev_64: portfolio_weight_64 <= 0.0586543827552763
 min_dev_64: portfolio_weight_64 >= 0
 max_dev_65: portfolio_weight_65 <= 0.051735011886217
 min_dev_65: portfolio_weight_65 >= 0
 max_dev_66: portfolio_weight_66 <= 0.0596158764801883
 min_dev_66: portfolio_weight_66 >= 0
 max_dev_67: portfolio_weight_67 <= 0.0515998441372185
 min_dev_67: portfolio_weight_67 >= 0
 max_dev_68: portfolio_weight_68 <= 0.0651331723499144
 min_dev_68: portfolio_weight_68 >= 0
 max_dev_69: portfolio_weight_69 <= 0.0651558011629064
 min_dev_69: portfolio_weight_69 >= 0
 max_dev_70: portfolio_weight_70 <= 0.0581913861262039
 min_dev_70: portfolio_weight_70 >= 0
 max_dev_71: portfolio_weight_71 <= 0.0578870005603957
 min_dev_71: portfolio_weight_71 >= 0
 max_dev_72: portfolio_weight_72 <= 0.0546249840693958
 min_dev_72: portfolio_weight_72 >= 0
 max_dev_73: portfolio_weight_73 <= 0.0531642002102712
 min_dev_73: portfolio_weight_73 >= 0
 max_dev_74: portfolio_weight_74 <= 0.0556981969012753
 min_dev_74: portfolio_weight_74 >= 0
 max_dev_75: portfolio_weight_75 <= 0.0920060610558689
 min_dev_75: portfolio_weight_75 >= 0
 max_dev_76: portfolio_weight_76 <= 0.0572750298337222
 min_dev_76: portfolio_weight_76 >= 0
 max_dev_77: portfolio_weight_77 <= 0.0515058836866077
 min_dev_77: portfolio_weight_77 >= 0
 max_dev_78: portfolio_weight_78 <= 0.051047881001094
 min_dev_78: portfolio_weight_78 >= 0
 max_dev_79: portfolio_weight_79 <= 0.0513730776025608
 min_dev_79: portfolio_weight_79 >= 0
 max_dev_80: portfolio_weight_80 <= 0.0539651053187816
 min_dev_80: portfolio_weight_80 >= 0
 max_dev_81: portfolio_weight_81 <= 0.0705103181002293
 min_dev_81: portfolio_weight_81 >= 0
 max_dev_82: portfolio_weight_82 <= 0.0520784973624624
 min_dev_82: portfolio_weight_82 >= 0
 max_dev_83: portfolio_weight_83 <= 0.0739717362882584
 min_dev_83: portfolio_weight_83 >= 0
 max_dev_84: portfolio_weight_84 <= 0.0569211184954087
 min_dev_84: portfolio_weight_84 >= 0
 max_dev_85: portfolio_weight_85 <= 0.0593799334245287
 min_dev_85: portfolio_weight_85 >= 0
 max_dev_86: portfolio_weight_86 <= 0.0591263751136405
 min_dev_86: portfolio_weight_86 >= 0
 max_dev_87: portfolio_weight_87 <= 0.0604415631036684
 min_dev_87: portfolio_weight_87 >= 0
 max_dev_88: portfolio_weight_88 <= 0.0538334435907594
 min_dev_88: portfolio_weight_88 >= 0
 max_dev_89: portfolio_weight_89 <= 0.0505602979449983
 min_dev_89: portfolio_weight_89 >= 0
 max_dev_90: portfolio_weight_90 <= 0.0532116087333876
 min_dev_90: portfolio_weight_90 >= 0
 max_dev_91: portfolio_weight_91 <= 0.05238035541741
 min_dev_91: portfolio_weight_91 >= 0
 max_dev_92: portfolio_weight_92 <= 0.0578907523155119
 min_dev_92: portfolio_weight_92 >= 0
 max_dev_93: portfolio_weight_93 <= 0.0572020658941367
 min_dev_93: portfolio_weight_93 >= 0
 max_dev_94: portfolio_weight_94 <= 0.0544050401501856
 min_dev_94: portfolio_weight_94 >= 0
 max_dev_95: portfolio_weight_95 <= 0.0834701493422435
 min_dev_95: portfolio_weight_95 >= 0
 max_dev_96: portfolio_weight_96 <= 0.0530477401589124
 min_dev_96: portfolio_weight_96 >= 0
 max_dev_97: portfolio_weight_97 <= 0.0506246246683525
 min_dev_97: portfolio_weight_97 >= 0
 max_dev_98: portfolio_weight_98 <= 0.0565181179123828
 min_dev_98: portfolio_weight_98 >= 0
 max_dev_99: portfolio_weight_99 <= 0.0689978149364888
 min_dev_99: portfolio_weight_99 >= 0
 max_dev_100: portfolio_weight_100 <= 0.0577082399088132
 min_dev_100: portfolio_weight_100 >= 0
 max_dev_101: portfolio_weight_101 <= 0.0540490832722961
 min_dev_101: portfolio_weight_101 >= 0
 max_dev_102: portfolio_weight_102 <= 0.057356442811531
 min_dev_102: portfolio_weight_102 >= 0
 max_dev_103: portfolio_weight_103 <= 0.0863805962125468
 min_dev_103: portfolio_weight_103 >= 0
 max_dev_104: portfolio_weight_104 <= 0.0524109020429556
 min_dev_104: portfolio_weight_104 >= 0
 max_dev_105: portfolio_weight_105 <= 0.055965555521089
 min_dev_105: portfolio_weight_105 >= 0
 max_dev_106: portfolio_weight_106 <= 0.0613030406464346
 min_dev_106: portfolio_weight_106 >= 0
 max_dev_107: portfolio_weight_107 <= 0.057455978455164
 min_dev_107: portfolio_weight_107 >= 0
 max_dev_108: portfolio_weight_108 <= 0.0545143532770972
 min_dev_108: portfolio_weight_108 >= 0
Bounds
 w[0] <= 1
 w[1] <= 1
 w[2] <= 1
 w[3] <= 1
 w[4] <= 1
 w[5] <= 1
 w[6] <= 1
 w[7] <= 1
 w[8] <= 1
 w[9] <= 1
 w[10] <= 1
 w[11] <= 1
 w[12] <= 1
 w[13] <= 1
 w[14] <= 1
 w[15] <= 1
 w[16] <= 1
 w[17] <= 1
 w[18] <= 1
 w[19] <= 1
 w[20] <= 1
 w[21] <= 1
 w[22] <= 1
 w[23] <= 1
 w[24] <= 1
 w[25] <= 1
 w[26] <= 1
 w[27] <= 1
 w[28] <= 1
 w[29] <= 1
 w[30] <= 1
 w[31] <= 1
 w[32] <= 1
 w[33] <= 1
 w[34] <= 1
 w[35] <= 1
 w[36] <= 1
 w[37] <= 1
 w[38] <= 1
 w[39] <= 1
 w[40] <= 1
 w[41] <= 1
 w[42] <= 1
 w[43] <= 1
 w[44] <= 1
 w[45] <= 1
 w[46] <= 1
 w[47] <= 1
 w[48] <= 1
 w[49] <= 1
 w[50] <= 1
 w[51] <= 1
 w[52] <= 1
 w[53] <= 1
 w[54] <= 1
 w[55] <= 1
 w[56] <= 1
 w[57] <= 1
 w[58] <= 1
 w[59] <= 1
 w[60] <= 1
 w[61] <= 1
 w[62] <= 1
 w[63] <= 1
 w[64] <= 1
 w[65] <= 1
 w[66] <= 1
 w[67] <= 1
 w[68] <= 1
 w[69] <= 1
 w[70] <= 1
 w[71] <= 1
 w[72] <= 1
 w[73] <= 1
 w[74] <= 1
 w[75] <= 1
 w[76] <= 1
 w[77] <= 1
 w[78] <= 1
 w[79] <= 1
 w[80] <= 1
 w[81] <= 1
 w[82] <= 1
 w[83] <= 1
 w[84] <= 1
 w[85] <= 1
 w[86] <= 1
 w[87] <= 1
 w[88] <= 1
 w[89] <= 1
 w[90] <= 1
 w[91] <= 1
 w[92] <= 1
 w[93] <= 1
 w[94] <= 1
 w[95] <= 1
 w[96] <= 1
 w[97] <= 1
 w[98] <= 1
 w[99] <= 1
 w[100] <= 1
 w[101] <= 1
 w[102] <= 1
 w[103] <= 1
 w[104] <= 1
 w[105] <= 1
 w[106] <= 1
 w[107] <= 1
 w[108] <= 1
 Constant = 1
End